solution status: time limit reached
objective value:                                   45
shell_i_$_79                                        1 	(obj:0)
shell_j_$_134                                       1 	(obj:0)
shell_i_$_150                                       1 	(obj:0)
shell_j_$_76                                        1 	(obj:0)
shell_j_$_96                                        1 	(obj:0)
shell_i_$_132                                       1 	(obj:0)
shell_j_$_166                                       1 	(obj:0)
shell_j_$_73                                        1 	(obj:0)
shell_j_$_151                                       1 	(obj:0)
shell_j_$_89                                        1 	(obj:0)
shell_j_$_71                                        1 	(obj:0)
shell_j_$_103                                       1 	(obj:0)
shell_j_$_82                                        1 	(obj:0)
shell_j_$_179                                       1 	(obj:0)
shell_j_$_153                                       1 	(obj:0)
shell_j_$_93                                        1 	(obj:0)
shell_j_$_130                                       1 	(obj:0)
shell_j_$_72                                        1 	(obj:0)
shell_i_$_147                                       1 	(obj:0)
shell_j_$_70                                        1 	(obj:0)
shell_j_$_78                                        1 	(obj:0)
shell_j_$_164                                       1 	(obj:0)
shell_j_$_169                                       1 	(obj:0)
shell_j_$_136                                       1 	(obj:0)
shell_j_$_148                                       1 	(obj:0)
shell_j_$_75                                        1 	(obj:0)
shell_j_$_186                                       1 	(obj:0)
shell_i_$_97                                        1 	(obj:0)
shell_j_$_163                                       1 	(obj:0)
shell_j_$_90                                        1 	(obj:0)
shell_j_$_180                                       1 	(obj:0)
shell_j_$_133                                       1 	(obj:0)
shell_i_$_181                                       1 	(obj:0)
shell_i_$_149                                       1 	(obj:0)
shell_i_$_168                                       1 	(obj:0)
shell_j_$_94                                        1 	(obj:0)
shell_j_$_165                                       1 	(obj:0)
shell_j_$_91                                        1 	(obj:0)
shell_i_$_105                                       1 	(obj:0)
shell_j_$_131                                       1 	(obj:0)
shell_j_$_152                                       1 	(obj:0)
shell_j_$_88                                        1 	(obj:0)
shell_j_$_167                                       1 	(obj:0)
shell_j_$_135                                       1 	(obj:0)
shell_j_$_74                                        1 	(obj:0)
shell_j_$_84                                        1 	(obj:0)
shell_j_$_187                                       1 	(obj:0)
shell_j_$_92                                        1 	(obj:0)
shell_i_$_185                                       1 	(obj:0)
$_134_x                                             5 	(obj:0)
$_76_x                                              3 	(obj:0)
$_78_x                                              6 	(obj:0)
$_78_y                                              8 	(obj:0)
$_78_z                                             24 	(obj:0)
$_151_x                                             8 	(obj:0)
$_151_y                                             8 	(obj:0)
$_164_x                                             8 	(obj:0)
$_164_y                                             8 	(obj:0)
$_164_z                                            17 	(obj:0)
$_151_z                                            19 	(obj:0)
$_76_y                                              8 	(obj:0)
$_169_x                                             8 	(obj:0)
$_169_y                                             8 	(obj:0)
$_169_z                                            16 	(obj:0)
$_76_z                                             23 	(obj:0)
$_89_x                                              5 	(obj:0)
$_136_x                                             4 	(obj:0)
$_136_y                                             8 	(obj:0)
$_136_z                                            21 	(obj:0)
$_89_y                                              8 	(obj:0)
$_89_z                                             21 	(obj:0)
$_148_x                                             7 	(obj:0)
$_148_y                                             8 	(obj:0)
$_148_z                                            20 	(obj:0)
$_134_y                                             8 	(obj:0)
$_134_z                                            22 	(obj:0)
$_75_x                                              7 	(obj:0)
$_75_y                                              8 	(obj:0)
$_75_z                                             21 	(obj:0)
$_71_x                                              5 	(obj:0)
$_71_y                                              8 	(obj:0)
$_186_x                                             5 	(obj:0)
$_186_y                                             8 	(obj:0)
$_186_z                                            24 	(obj:0)
$_71_z                                             16 	(obj:0)
$_96_x                                              5 	(obj:0)
$_97_x                                              8 	(obj:0)
$_97_y                                              5 	(obj:0)
$_97_z                                             22 	(obj:0)
$_96_y                                              8 	(obj:0)
$_103_x                                             5 	(obj:0)
$_163_x                                             7 	(obj:0)
$_163_y                                             8 	(obj:0)
$_163_z                                            18 	(obj:0)
$_103_y                                             8 	(obj:0)
$_103_z                                            13 	(obj:0)
$_90_x                                              3 	(obj:0)
$_90_y                                              8 	(obj:0)
$_90_z                                             20 	(obj:0)
$_96_z                                             25 	(obj:0)
$_79_z                                             20 	(obj:0)
$_180_x                                             6 	(obj:0)
$_180_y                                             8 	(obj:0)
$_180_z                                            19 	(obj:0)
$_82_x                                              2 	(obj:0)
$_82_y                                              8 	(obj:0)
$_133_x                                             4 	(obj:0)
$_133_y                                             8 	(obj:0)
$_133_z                                            16 	(obj:0)
$_82_z                                             24 	(obj:0)
$_79_x                                              8 	(obj:0)
$_181_x                                             8 	(obj:0)
$_181_y                                             5 	(obj:0)
$_181_z                                            13 	(obj:0)
$_132_x                                             8 	(obj:0)
$_179_x                                             6 	(obj:0)
$_149_x                                             8 	(obj:0)
$_149_y                                             6 	(obj:0)
$_149_z                                            15 	(obj:0)
$_179_y                                             8 	(obj:0)
$_179_z                                            16 	(obj:0)
$_168_x                                             8 	(obj:0)
$_168_y                                             6 	(obj:0)
$_168_z                                            14 	(obj:0)
$_132_y                                             6 	(obj:0)
$_132_z                                            16 	(obj:0)
$_94_x                                              5 	(obj:0)
$_94_y                                              8 	(obj:0)
$_94_z                                             23 	(obj:0)
$_153_x                                             8 	(obj:0)
$_153_y                                             8 	(obj:0)
$_165_x                                             6 	(obj:0)
$_165_y                                             8 	(obj:0)
$_165_z                                            17 	(obj:0)
$_153_z                                            20 	(obj:0)
$_150_x                                             8 	(obj:0)
$_91_x                                              4 	(obj:0)
$_91_y                                              8 	(obj:0)
$_91_z                                             24 	(obj:0)
$_150_y                                             4 	(obj:0)
$_93_x                                              7 	(obj:0)
$_105_x                                             8 	(obj:0)
$_105_y                                             5 	(obj:0)
$_105_z                                            14 	(obj:0)
$_93_y                                              8 	(obj:0)
$_93_z                                             22 	(obj:0)
$_131_x                                             4 	(obj:0)
$_131_y                                             8 	(obj:0)
$_131_z                                            20 	(obj:0)
$_166_x                                             8 	(obj:0)
$_166_y                                             8 	(obj:0)
$_152_x                                             8 	(obj:0)
$_152_y                                             8 	(obj:0)
$_152_z                                            18 	(obj:0)
$_130_x                                             6 	(obj:0)
$_130_y                                             8 	(obj:0)
$_88_x                                              7 	(obj:0)
$_88_y                                              8 	(obj:0)
$_88_z                                             16 	(obj:0)
$_130_z                                            20 	(obj:0)
$_166_z                                            15 	(obj:0)
$_167_x                                             6 	(obj:0)
$_167_y                                             8 	(obj:0)
$_167_z                                            15 	(obj:0)
$_150_z                                            14 	(obj:0)
$_72_x                                              3 	(obj:0)
$_135_x                                             8 	(obj:0)
$_135_y                                             8 	(obj:0)
$_135_z                                            21 	(obj:0)
$_72_y                                              8 	(obj:0)
$_72_z                                             21 	(obj:0)
$_74_x                                              3 	(obj:0)
$_74_y                                              8 	(obj:0)
$_74_z                                             22 	(obj:0)
$_79_y                                              5 	(obj:0)
$_73_x                                              4 	(obj:0)
$_84_x                                              6 	(obj:0)
$_84_y                                              8 	(obj:0)
$_84_z                                             23 	(obj:0)
$_147_x                                             8 	(obj:0)
$_147_y                                             6 	(obj:0)
$_187_x                                             4 	(obj:0)
$_187_y                                             8 	(obj:0)
$_187_z                                            22 	(obj:0)
$_147_z                                            18 	(obj:0)
$_73_y                                              8 	(obj:0)
$_92_x                                              4 	(obj:0)
$_92_y                                              8 	(obj:0)
$_92_z                                             23 	(obj:0)
$_73_z                                             25 	(obj:0)
$_70_x                                              5 	(obj:0)
$_185_x                                             8 	(obj:0)
$_185_y                                             4 	(obj:0)
$_185_z                                            20 	(obj:0)
$_70_y                                              8 	(obj:0)
$_70_z                                             20 	(obj:0)
x249                                                1 	(obj:1)
x251                                                2 	(obj:1)
x264                                                2 	(obj:1)
x265                                                2 	(obj:1)
x276                                                1 	(obj:1)
x278                                                1 	(obj:1)
x299                                                1 	(obj:1)
x309                                                2 	(obj:1)
x310                                                2 	(obj:1)
x319                                                2 	(obj:1)
x339                                                1 	(obj:1)
x340                                                2 	(obj:1)
x354                                                1 	(obj:1)
x376                                                2 	(obj:1)
x379                                                2 	(obj:1)
x387                                                2 	(obj:1)
x392                                                2 	(obj:1)
x404                                                4 	(obj:1)
x410                                                2 	(obj:1)
x414                                                2 	(obj:1)
x416                                                2 	(obj:1)
x420                                                2 	(obj:1)
x425                                                1 	(obj:1)
x437                                                1 	(obj:1)
x441                                                3 	(obj:1)
